Minimize
 maxTime
SUBJECT TO
o0Finish - o0Start >= 40
o1Finish - o1Start >= 40
o2Finish - o2Start >= 40
o3Finish - o3Start >= 40
o4Finish - o4Start >= 40
o5Finish - o5Start >= 40
o6Finish - o6Start >= 40
o7Finish - o7Start >= 40
o0Inj - o0Start <= 0
o0Ej - o0Finish >= 0
o1Inj - o1Start <= 0
o1Ej - o1Finish >= 0
o2Inj - o2Start <= 0
o2Ej - o2Finish >= 0
o3Inj - o3Start <= 0
o3Ej - o3Finish >= 0
o4Inj - o4Start <= 0
o4Ej - o4Finish >= 0
o5Inj - o5Start <= 0
o5Ej - o5Finish >= 0
o6Inj - o6Start <= 0
o6Ej - o6Finish >= 0
o7Inj - o7Start <= 0
o7Ej - o7Finish >= 0
co0o3Start - o0Finish >= 0
o3Start - co0o3Finish >= 0
o3Inj - co0o3Finish <= -10
o0Ej - co0o3Start >= 10
co0o4Start - o0Finish >= 0
o4Start - co0o4Finish >= 0
o4Inj - co0o4Finish <= -10
o0Ej - co0o4Start >= 10
co1o5Start - o1Finish >= 0
o5Start - co1o5Finish >= 0
o5Inj - co1o5Finish <= -10
o1Ej - co1o5Start >= 10
co1o6Start - o1Finish >= 0
o6Start - co1o6Finish >= 0
o6Inj - co1o6Finish <= -10
o1Ej - co1o6Start >= 10
co2o6Start - o2Finish >= 0
o6Start - co2o6Finish >= 0
o6Inj - co2o6Finish <= -10
o2Ej - co2o6Start >= 10
co2o7Start - o2Finish >= 0
o7Start - co2o7Finish >= 0
o7Inj - co2o7Finish <= -10
o2Ej - co2o7Start >= 10
co1o6Finish - co2o6Finish - 10000 co1o6BFco2o6 <= -10
co1o6Finish - co2o6Finish - 10000 co1o6BFco2o6 >= -9990
co2o6Finish - co1o6Finish - 10000 co2o6BFco1o6 <= -10
co2o6Finish - co1o6Finish - 10000 co2o6BFco1o6 >= -9990
co0o3SESd0 - 10000 o0Bindd0 - 10000 o3Bindd0 <= 0
co0o3SESd0 + 10000 o0Bindd0 + 10000 o3Bindd0 >= 0
co0o3SESd0 - o0Bindd0 >= 0
co0o3SESd0 - o3Bindd0 >= 0
co0o3SESd1 - 10000 o0Bindd1 - 10000 o3Bindd1 <= 0
co0o3SESd1 + 10000 o0Bindd1 + 10000 o3Bindd1 >= 0
co0o3SESd1 - o0Bindd1 >= 0
co0o3SESd1 - o3Bindd1 >= 0
co0o3SESd2 - 10000 o0Bindd2 - 10000 o3Bindd2 <= 0
co0o3SESd2 + 10000 o0Bindd2 + 10000 o3Bindd2 >= 0
co0o3SESd2 - o0Bindd2 >= 0
co0o3SESd2 - o3Bindd2 >= 0
co0o3SES - co0o3SESd0 <= 0
co0o3SES - co0o3SESd1 <= 0
co0o3SES - co0o3SESd2 <= 0
co0o3SES - 10000 co0o3SESd0 - 10000 co0o3SESd1 - 10000 co0o3SESd2 >= -29999
co0o3SES + 10000 co0o3SESd0 + 10000 co0o3SESd1 + 10000 co0o3SESd2 <= 30001
co0o3Finish - co0o3Start - 10000 co0o3SES <= 0
co0o3Finish - co0o3Start + 10000 co0o3SES >= 0
co0o3Finish - co0o3Start - 10000 co0o3SES >= -9990
co0o4SESd0 - 10000 o0Bindd0 - 10000 o4Bindd0 <= 0
co0o4SESd0 + 10000 o0Bindd0 + 10000 o4Bindd0 >= 0
co0o4SESd0 - o0Bindd0 >= 0
co0o4SESd0 - o4Bindd0 >= 0
co0o4SESd1 - 10000 o0Bindd1 - 10000 o4Bindd1 <= 0
co0o4SESd1 + 10000 o0Bindd1 + 10000 o4Bindd1 >= 0
co0o4SESd1 - o0Bindd1 >= 0
co0o4SESd1 - o4Bindd1 >= 0
co0o4SESd2 - 10000 o0Bindd2 - 10000 o4Bindd2 <= 0
co0o4SESd2 + 10000 o0Bindd2 + 10000 o4Bindd2 >= 0
co0o4SESd2 - o0Bindd2 >= 0
co0o4SESd2 - o4Bindd2 >= 0
co0o4SES - co0o4SESd0 <= 0
co0o4SES - co0o4SESd1 <= 0
co0o4SES - co0o4SESd2 <= 0
co0o4SES - 10000 co0o4SESd0 - 10000 co0o4SESd1 - 10000 co0o4SESd2 >= -29999
co0o4SES + 10000 co0o4SESd0 + 10000 co0o4SESd1 + 10000 co0o4SESd2 <= 30001
co0o4Finish - co0o4Start - 10000 co0o4SES <= 0
co0o4Finish - co0o4Start + 10000 co0o4SES >= 0
co0o4Finish - co0o4Start - 10000 co0o4SES >= -9990
co1o5SESd0 - 10000 o1Bindd0 - 10000 o5Bindd0 <= 0
co1o5SESd0 + 10000 o1Bindd0 + 10000 o5Bindd0 >= 0
co1o5SESd0 - o1Bindd0 >= 0
co1o5SESd0 - o5Bindd0 >= 0
co1o5SESd1 - 10000 o1Bindd1 - 10000 o5Bindd1 <= 0
co1o5SESd1 + 10000 o1Bindd1 + 10000 o5Bindd1 >= 0
co1o5SESd1 - o1Bindd1 >= 0
co1o5SESd1 - o5Bindd1 >= 0
co1o5SESd2 - 10000 o1Bindd2 - 10000 o5Bindd2 <= 0
co1o5SESd2 + 10000 o1Bindd2 + 10000 o5Bindd2 >= 0
co1o5SESd2 - o1Bindd2 >= 0
co1o5SESd2 - o5Bindd2 >= 0
co1o5SES - co1o5SESd0 <= 0
co1o5SES - co1o5SESd1 <= 0
co1o5SES - co1o5SESd2 <= 0
co1o5SES - 10000 co1o5SESd0 - 10000 co1o5SESd1 - 10000 co1o5SESd2 >= -29999
co1o5SES + 10000 co1o5SESd0 + 10000 co1o5SESd1 + 10000 co1o5SESd2 <= 30001
co1o5Finish - co1o5Start - 10000 co1o5SES <= 0
co1o5Finish - co1o5Start + 10000 co1o5SES >= 0
co1o5Finish - co1o5Start - 10000 co1o5SES >= -9990
co1o6SESd0 - 10000 o1Bindd0 - 10000 o6Bindd0 <= 0
co1o6SESd0 + 10000 o1Bindd0 + 10000 o6Bindd0 >= 0
co1o6SESd0 - o1Bindd0 >= 0
co1o6SESd0 - o6Bindd0 >= 0
co1o6SESd1 - 10000 o1Bindd1 - 10000 o6Bindd1 <= 0
co1o6SESd1 + 10000 o1Bindd1 + 10000 o6Bindd1 >= 0
co1o6SESd1 - o1Bindd1 >= 0
co1o6SESd1 - o6Bindd1 >= 0
co1o6SESd2 - 10000 o1Bindd2 - 10000 o6Bindd2 <= 0
co1o6SESd2 + 10000 o1Bindd2 + 10000 o6Bindd2 >= 0
co1o6SESd2 - o1Bindd2 >= 0
co1o6SESd2 - o6Bindd2 >= 0
co1o6SES - co1o6SESd0 <= 0
co1o6SES - co1o6SESd1 <= 0
co1o6SES - co1o6SESd2 <= 0
co1o6SES - 10000 co1o6SESd0 - 10000 co1o6SESd1 - 10000 co1o6SESd2 >= -29999
co1o6SES + 10000 co1o6SESd0 + 10000 co1o6SESd1 + 10000 co1o6SESd2 <= 30001
co1o6Finish - co1o6Start - 10000 co1o6SES <= 0
co1o6Finish - co1o6Start + 10000 co1o6SES >= 0
co1o6Finish - co1o6Start - 10000 co1o6SES >= -9990
co2o6SESd0 - 10000 o2Bindd0 - 10000 o6Bindd0 <= 0
co2o6SESd0 + 10000 o2Bindd0 + 10000 o6Bindd0 >= 0
co2o6SESd0 - o2Bindd0 >= 0
co2o6SESd0 - o6Bindd0 >= 0
co2o6SESd1 - 10000 o2Bindd1 - 10000 o6Bindd1 <= 0
co2o6SESd1 + 10000 o2Bindd1 + 10000 o6Bindd1 >= 0
co2o6SESd1 - o2Bindd1 >= 0
co2o6SESd1 - o6Bindd1 >= 0
co2o6SESd2 - 10000 o2Bindd2 - 10000 o6Bindd2 <= 0
co2o6SESd2 + 10000 o2Bindd2 + 10000 o6Bindd2 >= 0
co2o6SESd2 - o2Bindd2 >= 0
co2o6SESd2 - o6Bindd2 >= 0
co2o6SES - co2o6SESd0 <= 0
co2o6SES - co2o6SESd1 <= 0
co2o6SES - co2o6SESd2 <= 0
co2o6SES - 10000 co2o6SESd0 - 10000 co2o6SESd1 - 10000 co2o6SESd2 >= -29999
co2o6SES + 10000 co2o6SESd0 + 10000 co2o6SESd1 + 10000 co2o6SESd2 <= 30001
co2o6Finish - co2o6Start - 10000 co2o6SES <= 0
co2o6Finish - co2o6Start + 10000 co2o6SES >= 0
co2o6Finish - co2o6Start - 10000 co2o6SES >= -9990
co2o7SESd0 - 10000 o2Bindd0 - 10000 o7Bindd0 <= 0
co2o7SESd0 + 10000 o2Bindd0 + 10000 o7Bindd0 >= 0
co2o7SESd0 - o2Bindd0 >= 0
co2o7SESd0 - o7Bindd0 >= 0
co2o7SESd1 - 10000 o2Bindd1 - 10000 o7Bindd1 <= 0
co2o7SESd1 + 10000 o2Bindd1 + 10000 o7Bindd1 >= 0
co2o7SESd1 - o2Bindd1 >= 0
co2o7SESd1 - o7Bindd1 >= 0
co2o7SESd2 - 10000 o2Bindd2 - 10000 o7Bindd2 <= 0
co2o7SESd2 + 10000 o2Bindd2 + 10000 o7Bindd2 >= 0
co2o7SESd2 - o2Bindd2 >= 0
co2o7SESd2 - o7Bindd2 >= 0
co2o7SES - co2o7SESd0 <= 0
co2o7SES - co2o7SESd1 <= 0
co2o7SES - co2o7SESd2 <= 0
co2o7SES - 10000 co2o7SESd0 - 10000 co2o7SESd1 - 10000 co2o7SESd2 >= -29999
co2o7SES + 10000 co2o7SESd0 + 10000 co2o7SESd1 + 10000 co2o7SESd2 <= 30001
co2o7Finish - co2o7Start - 10000 co2o7SES <= 0
co2o7Finish - co2o7Start + 10000 co2o7SES >= 0
co2o7Finish - co2o7Start - 10000 co2o7SES >= -9990
o0Bindd0 = 1
o0Bindd1 = 1
o0Bindd2 = 1
 + o0Bindd0 + o0Bindd1 + o0Bindd2 = 2
o1Bindd0 = 1
o1Bindd2 = 1
 + o1Bindd0 + o1Bindd1 + o1Bindd2 = 2
o2Bindd0 = 1
o2Bindd2 = 1
 + o2Bindd0 + o2Bindd1 + o2Bindd2 = 2
o3Bindd0 = 1
o3Bindd1 = 1
 + o3Bindd0 + o3Bindd1 + o3Bindd2 = 2
o4Bindd0 = 1
o4Bindd1 = 1
 + o4Bindd0 + o4Bindd1 + o4Bindd2 = 2
o5Bindd0 = 1
o5Bindd1 = 1
o5Bindd2 = 1
 + o5Bindd0 + o5Bindd1 + o5Bindd2 = 2
o6Bindd1 = 1
o6Bindd2 = 1
 + o6Bindd0 + o6Bindd1 + o6Bindd2 = 2
o7Bindd0 = 1
o7Bindd1 = 1
 + o7Bindd0 + o7Bindd1 + o7Bindd2 = 2
o1Inj - o2Ej + 10000 o2Beforeo1 >= 0
o2Inj - o1Ej + 10000 o1Beforeo2 >= 0
 - o2Bindd0 - o1Bindd0 + o2Beforeo1 + o1Beforeo2 <= 1
o3Inj - o4Ej + 10000 o4Beforeo3 >= 0
o4Inj - o3Ej + 10000 o3Beforeo4 >= 0
 - o4Bindd0 - o3Bindd0 + o4Beforeo3 + o3Beforeo4 <= 1
o0Inj - o5Ej + 10000 o5Beforeo0 >= 0
o5Inj - o0Ej + 10000 o0Beforeo5 >= 0
 - o5Bindd0 - o0Bindd0 + o5Beforeo0 + o0Beforeo5 <= 1
o3Inj - o7Ej + 10000 o7Beforeo3 >= 0
o7Inj - o3Ej + 10000 o3Beforeo7 >= 0
 - o7Bindd0 - o3Bindd0 + o7Beforeo3 + o3Beforeo7 <= 1
o4Inj - o7Ej + 10000 o7Beforeo4 >= 0
o7Inj - o4Ej + 10000 o4Beforeo7 >= 0
 - o7Bindd0 - o4Bindd0 + o7Beforeo4 + o4Beforeo7 <= 1
o1Inj - o2Ej + 10000 o2Beforeo1 >= 0
o2Inj - o1Ej + 10000 o1Beforeo2 >= 0
 - o2Bindd1 - o1Bindd1 + o2Beforeo1 + o1Beforeo2 <= 1
o3Inj - o4Ej + 10000 o4Beforeo3 >= 0
o4Inj - o3Ej + 10000 o3Beforeo4 >= 0
 - o4Bindd1 - o3Bindd1 + o4Beforeo3 + o3Beforeo4 <= 1
o0Inj - o5Ej + 10000 o5Beforeo0 >= 0
o5Inj - o0Ej + 10000 o0Beforeo5 >= 0
 - o5Bindd1 - o0Bindd1 + o5Beforeo0 + o0Beforeo5 <= 1
o3Inj - o7Ej + 10000 o7Beforeo3 >= 0
o7Inj - o3Ej + 10000 o3Beforeo7 >= 0
 - o7Bindd1 - o3Bindd1 + o7Beforeo3 + o3Beforeo7 <= 1
o4Inj - o7Ej + 10000 o7Beforeo4 >= 0
o7Inj - o4Ej + 10000 o4Beforeo7 >= 0
 - o7Bindd1 - o4Bindd1 + o7Beforeo4 + o4Beforeo7 <= 1
o1Inj - o2Ej + 10000 o2Beforeo1 >= 0
o2Inj - o1Ej + 10000 o1Beforeo2 >= 0
 - o2Bindd2 - o1Bindd2 + o2Beforeo1 + o1Beforeo2 <= 1
o3Inj - o4Ej + 10000 o4Beforeo3 >= 0
o4Inj - o3Ej + 10000 o3Beforeo4 >= 0
 - o4Bindd2 - o3Bindd2 + o4Beforeo3 + o3Beforeo4 <= 1
o0Inj - o5Ej + 10000 o5Beforeo0 >= 0
o5Inj - o0Ej + 10000 o0Beforeo5 >= 0
 - o5Bindd2 - o0Bindd2 + o5Beforeo0 + o0Beforeo5 <= 1
o3Inj - o7Ej + 10000 o7Beforeo3 >= 0
o7Inj - o3Ej + 10000 o3Beforeo7 >= 0
 - o7Bindd2 - o3Bindd2 + o7Beforeo3 + o3Beforeo7 <= 1
o4Inj - o7Ej + 10000 o7Beforeo4 >= 0
o7Inj - o4Ej + 10000 o4Beforeo7 >= 0
 - o7Bindd2 - o4Bindd2 + o7Beforeo4 + o4Beforeo7 <= 1
maxTime - o0Finish >= 0
maxTime - o1Finish >= 0
maxTime - o2Finish >= 0
maxTime - o3Finish >= 0
maxTime - o4Finish >= 0
maxTime - o5Finish >= 0
maxTime - o6Finish >= 0
maxTime - o7Finish >= 0
Binaries
o0Bindd0
o0Bindd1
o0Bindd2
o1Bindd0
o1Bindd1
o1Bindd2
o2Bindd0
o2Bindd1
o2Bindd2
o3Bindd0
o3Bindd1
o3Bindd2
o4Bindd0
o4Bindd1
o4Bindd2
o5Bindd0
o5Bindd1
o5Bindd2
o6Bindd0
o6Bindd1
o6Bindd2
o7Bindd0
o7Bindd1
o7Bindd2
co1o6BFco2o6
co2o6BFco1o6
co0o3SES
co0o3SESd0
co0o3SESd1
co0o3SESd2
co0o4SES
co0o4SESd0
co0o4SESd1
co0o4SESd2
co1o5SES
co1o5SESd0
co1o5SESd1
co1o5SESd2
co1o6SES
co1o6SESd0
co1o6SESd1
co1o6SESd2
co2o6SES
co2o6SESd0
co2o6SESd1
co2o6SESd2
co2o7SES
co2o7SESd0
co2o7SESd1
co2o7SESd2
o2Beforeo1
o1Beforeo2
o4Beforeo3
o3Beforeo4
o5Beforeo0
o0Beforeo5
o7Beforeo3
o3Beforeo7
o7Beforeo4
o4Beforeo7
o2Beforeo1
o1Beforeo2
o4Beforeo3
o3Beforeo4
o5Beforeo0
o0Beforeo5
o7Beforeo3
o3Beforeo7
o7Beforeo4
o4Beforeo7
o2Beforeo1
o1Beforeo2
o4Beforeo3
o3Beforeo4
o5Beforeo0
o0Beforeo5
o7Beforeo3
o3Beforeo7
o7Beforeo4
o4Beforeo7
Semi
o0Start
o0Finish
o0Inj
o0Ej
o1Start
o1Finish
o1Inj
o1Ej
o2Start
o2Finish
o2Inj
o2Ej
o3Start
o3Finish
o3Inj
o3Ej
o4Start
o4Finish
o4Inj
o4Ej
o5Start
o5Finish
o5Inj
o5Ej
o6Start
o6Finish
o6Inj
o6Ej
o7Start
o7Finish
o7Inj
o7Ej
co0o3Start
co0o3Finish
co0o4Start
co0o4Finish
co1o5Start
co1o5Finish
co1o6Start
co1o6Finish
co2o6Start
co2o6Finish
co2o7Start
co2o7Finish
maxTime
